%%% static parameters %%%
timespan = 1;
Fact = [2];
Distr1 = [5];
Distr2 = [20];
Clients_N = [100];
Demand_W = [15];
Lt0 = [4];
Lt1 = [4];
SS_ = [0.85];
DS_D = [20];
K = [200];
MA = [500];
%%% dynamic parameters %%%
lost_ratio_sales_ret_th = 0.0056928390577587985;
lost_ratio_sales_ret_w = 53;
lost_ratio_sales_dis_th = 0.0018917145561646433;
lost_ratio_sales_dis_w = 95;
lost_ratio_sales_fac_th = 0.006891091625011414;
lost_ratio_sales_fac_w = 74;
stock_customer_MA_mean_relative_th = 0.8783424827356286;
stock_customer_MA_mean_relative_w = 86;
stock_distributor_MA_mean_relative_th = 0.32942219785372173;
stock_distributor_MA_mean_relative_w = 32;
stock_retailer_MA_mean_relative_th = 0.09705315454572594;
stock_retailer_MA_mean_relative_w = 47;
stock_factory_MA_mean_relative_th = 0.9629171487866349;
stock_factory_MA_mean_relative_w = 82;
